GLPSOL--GLPK LP/MIP Solver 5.0
Parameter(s) specified in the command line:
 --lp ../modeles/4_79.lp --log 4_79.log
Reading problem data from '../modeles/4_79.lp'...
333 rows, 640 columns, 2232 non-zeros
316 integer variables, all of which are binary
983 lines were read
GLPK Integer Optimizer 5.0
333 rows, 640 columns, 2232 non-zeros
316 integer variables, all of which are binary
Preprocessing...
312 constraint coefficient(s) were reduced
333 rows, 636 columns, 2228 non-zeros
316 integer variables, all of which are binary
Scaling...
 A: min|aij| =  6.409e-04  max|aij| =  4.000e+00  ratio =  6.241e+03
GM: min|aij| =  1.125e-01  max|aij| =  8.888e+00  ratio =  7.900e+01
EQ: min|aij| =  1.266e-02  max|aij| =  1.000e+00  ratio =  7.900e+01
2N: min|aij| =  1.025e-02  max|aij| =  1.677e+00  ratio =  1.636e+02
Constructing initial basis...
Size of triangular part is 333
Solving LP relaxation...
GLPK Simplex Optimizer 5.0
333 rows, 636 columns, 2228 non-zeros
      0: obj =   8.000000000e+00 inf =   1.950e+01 (9)
     51: obj =   4.987980769e-01 inf =   0.000e+00 (0)
*   161: obj =  -1.997626582e+00 inf =   5.690e-16 (0)
OPTIMAL LP SOLUTION FOUND
Integer optimization begins...
Long-step dual simplex will be used
+   161: mip =     not found yet >=              -inf        (1; 0)
+   243: >>>>>  -1.997626582e+00 >=  -1.997626582e+00 < 0.1% (81; 0)
+   243: mip =  -1.997626582e+00 >=     tree is empty   0.0% (0; 161)
INTEGER OPTIMAL SOLUTION FOUND
Time used:   0.0 secs
Memory used: 1.0 Mb (1010040 bytes)
